objective value:                                11451
t_x_1                                               1 	(obj:18)
t_x_7                                               1 	(obj:7)
t_x_8                                               1 	(obj:23)
t_x_13                                              1 	(obj:41)
t_x_14                                              1 	(obj:59)
t_x_16                                              1 	(obj:6)
t_x_19                                              1 	(obj:3)
t_x_20                                              1 	(obj:69)
t_x_24                                              1 	(obj:43)
t_x_25                                              1 	(obj:41)
t_x_26                                              1 	(obj:24)
t_x_27                                              1 	(obj:6)
t_x_28                                              1 	(obj:13)
t_x_31                                              1 	(obj:39)
t_x_40                                              1 	(obj:23)
t_x_43                                              1 	(obj:35)
t_x_45                                              1 	(obj:0)
t_x_48                                              1 	(obj:6)
t_x_49                                              1 	(obj:27)
t_x_50                                              1 	(obj:46)
t_x_51                                              1 	(obj:15)
t_x_52                                              1 	(obj:62)
t_x_57                                              1 	(obj:36)
t_x_63                                              1 	(obj:4)
t_x_64                                              1 	(obj:14)
t_x_65                                              1 	(obj:9)
t_x_66                                              1 	(obj:10)
t_x_67                                              1 	(obj:44)
t_x_70                                              1 	(obj:37)
t_x_73                                              1 	(obj:28)
t_x_74                                              1 	(obj:60)
t_x_75                                              1 	(obj:40)
t_x_79                                              1 	(obj:16)
t_x_82                                              1 	(obj:18)
t_x_83                                              1 	(obj:43)
t_x_86                                              1 	(obj:15)
t_x_88                                              1 	(obj:5)
t_x_90                                              1 	(obj:68)
t_x_91                                              1 	(obj:44)
t_x_97                                              1 	(obj:48)
t_x_100                                             1 	(obj:8)
t_x_103                                             1 	(obj:16)
t_x_107                                             1 	(obj:8)
t_x_109                                             1 	(obj:13)
t_x_112                                             1 	(obj:14)
t_x_113                                             1 	(obj:16)
t_x_116                                             1 	(obj:3)
t_x_120                                             1 	(obj:41)
t_x_125                                             1 	(obj:12)
t_x_126                                             1 	(obj:14)
t_x_127                                             1 	(obj:7)
t_x_128                                             1 	(obj:25)
t_x_131                                             1 	(obj:7)
t_x_133                                             1 	(obj:39)
t_x_135                                             1 	(obj:21)
t_x_136                                             1 	(obj:3)
t_x_142                                             1 	(obj:30)
t_x_144                                             1 	(obj:36)
t_x_148                                             1 	(obj:0)
t_x_150                                             1 	(obj:59)
t_x_151                                             1 	(obj:17)
t_x_152                                             1 	(obj:25)
t_x_161                                             1 	(obj:13)
t_x_166                                             1 	(obj:17)
t_x_170                                             1 	(obj:7)
t_x_178                                             1 	(obj:2)
t_x_181                                             1 	(obj:19)
t_x_183                                             1 	(obj:33)
t_x_185                                             1 	(obj:26)
t_x_193                                             1 	(obj:9)
t_x_196                                             1 	(obj:30)
t_x_198                                             1 	(obj:2)
t_x_202                                             1 	(obj:6)
t_x_204                                             1 	(obj:7)
t_x_207                                             1 	(obj:14)
t_x_210                                             1 	(obj:10)
t_x_211                                             1 	(obj:8)
t_x_213                                             1 	(obj:20)
t_x_218                                             1 	(obj:16)
t_x_219                                             1 	(obj:35)
t_x_222                                             1 	(obj:24)
t_x_225                                             1 	(obj:14)
t_x_227                                             1 	(obj:3)
t_x_230                                             1 	(obj:34)
t_x_235                                             1 	(obj:16)
t_x_239                                             1 	(obj:24)
t_x_240                                             1 	(obj:49)
t_x_249                                             1 	(obj:6)
t_x_254                                             1 	(obj:1)
t_x_256                                             1 	(obj:53)
t_x_258                                             1 	(obj:9)
t_x_261                                             1 	(obj:1)
t_x_265                                             1 	(obj:0)
t_x_272                                             1 	(obj:2)
t_x_277                                             1 	(obj:5)
t_x_281                                             1 	(obj:51)
t_x_286                                             1 	(obj:24)
t_x_294                                             1 	(obj:7)
t_x_297                                             1 	(obj:15)
t_x_299                                             1 	(obj:16)
t_x_300                                             1 	(obj:4)
t_x_312                                             1 	(obj:19)
t_x_316                                             1 	(obj:1)
t_x_322                                             1 	(obj:41)
t_x_323                                             1 	(obj:24)
t_x_332                                             1 	(obj:13)
t_x_333                                             1 	(obj:1)
t_x_338                                             1 	(obj:21)
t_x_339                                             1 	(obj:21)
t_x_345                                             1 	(obj:39)
t_x_348                                             1 	(obj:24)
t_x_354                                             1 	(obj:10)
t_x_362                                             1 	(obj:58)
t_x_371                                             1 	(obj:13)
t_x_377                                             1 	(obj:19)
t_x_379                                             1 	(obj:1)
t_x_382                                             1 	(obj:61)
t_x_383                                             1 	(obj:6)
t_x_390                                             1 	(obj:25)
t_x_401                                             1 	(obj:21)
t_x_403                                             1 	(obj:17)
t_x_408                                             1 	(obj:5)
t_x_415                                             1 	(obj:17)
t_x_418                                             1 	(obj:23)
t_x_423                                             1 	(obj:21)
t_x_430                                             1 	(obj:11)
t_x_441                                             1 	(obj:6)
t_x_443                                             1 	(obj:25)
t_x_447                                             1 	(obj:7)
t_x_449                                             1 	(obj:28)
t_x_456                                             1 	(obj:17)
t_x_457                                             1 	(obj:31)
t_x_462                                             1 	(obj:16)
t_x_463                                             1 	(obj:1)
t_x_464                                             1 	(obj:22)
t_x_466                                             1 	(obj:18)
t_x_467                                             1 	(obj:4)
t_x_472                                             1 	(obj:20)
t_x_473                                             1 	(obj:21)
t_x_475                                             1 	(obj:42)
t_x_476                                             1 	(obj:18)
t_x_477                                             1 	(obj:41)
t_x_478                                             1 	(obj:11)
t_x_481                                             1 	(obj:5)
t_x_483                                             1 	(obj:17)
t_x_484                                             1 	(obj:31)
t_x_485                                             1 	(obj:26)
t_x_486                                             1 	(obj:25)
t_x_487                                             1 	(obj:8)
t_x_490                                             1 	(obj:8)
t_x_495                                             1 	(obj:16)
t_x_498                                             1 	(obj:20)
t_x_502                                             1 	(obj:6)
t_x_503                                             1 	(obj:33)
t_x_505                                             1 	(obj:0)
t_x_510                                             1 	(obj:48)
t_x_511                                             1 	(obj:54)
t_x_513                                             1 	(obj:33)
t_x_516                                             1 	(obj:53)
t_x_520                                             1 	(obj:18)
t_x_525                                             1 	(obj:1)
t_x_529                                             1 	(obj:19)
t_x_531                                             1 	(obj:15)
t_x_532                                             1 	(obj:20)
t_x_533                                             1 	(obj:9)
t_x_539                                             1 	(obj:19)
t_x_540                                             1 	(obj:0)
t_x_553                                             1 	(obj:8)
t_x_554                                             1 	(obj:28)
t_x_557                                             1 	(obj:22)
t_x_567                                             1 	(obj:23)
t_x_569                                             1 	(obj:10)
t_x_572                                             1 	(obj:15)
t_x_573                                             1 	(obj:18)
t_x_574                                             1 	(obj:13)
t_x_581                                             1 	(obj:28)
t_x_587                                             1 	(obj:43)
t_x_589                                             1 	(obj:27)
t_x_591                                             1 	(obj:11)
t_x_595                                             1 	(obj:16)
t_x_599                                             1 	(obj:3)
t_x_602                                             1 	(obj:25)
t_x_603                                             1 	(obj:0)
t_x_604                                             1 	(obj:15)
t_x_610                                             1 	(obj:16)
t_x_613                                             1 	(obj:23)
t_x_614                                             1 	(obj:48)
t_x_619                                             1 	(obj:1)
t_x_627                                             1 	(obj:10)
t_x_628                                             1 	(obj:8)
t_x_630                                             1 	(obj:0)
t_x_635                                             1 	(obj:1)
t_x_643                                             1 	(obj:16)
t_x_647                                             1 	(obj:31)
t_x_652                                             1 	(obj:0)
t_x_653                                             1 	(obj:4)
t_x_659                                             1 	(obj:34)
t_x_660                                             1 	(obj:21)
t_x_661                                             1 	(obj:25)
t_x_663                                             1 	(obj:37)
t_x_665                                             1 	(obj:5)
t_x_666                                             1 	(obj:3)
t_x_669                                             1 	(obj:12)
t_x_671                                             1 	(obj:17)
t_x_673                                             1 	(obj:11)
t_x_675                                             1 	(obj:37)
t_x_681                                             1 	(obj:19)
t_x_687                                             1 	(obj:10)
t_x_691                                             1 	(obj:14)
t_x_693                                             1 	(obj:17)
t_x_696                                             1 	(obj:20)
t_x_703                                             1 	(obj:7)
t_x_704                                             1 	(obj:4)
t_x_706                                             1 	(obj:2)
t_x_707                                             1 	(obj:7)
t_x_713                                             1 	(obj:25)
t_x_715                                             1 	(obj:12)
t_x_719                                             1 	(obj:12)
t_x_721                                             1 	(obj:18)
t_x_730                                             1 	(obj:36)
t_x_732                                             1 	(obj:62)
t_x_734                                             1 	(obj:6)
t_x_739                                             1 	(obj:6)
t_x_744                                             1 	(obj:63)
t_x_745                                             1 	(obj:16)
t_x_746                                             1 	(obj:21)
t_x_747                                             1 	(obj:15)
t_x_748                                             1 	(obj:2)
t_x_753                                             1 	(obj:31)
t_x_758                                             1 	(obj:4)
t_x_763                                             1 	(obj:1)
t_x_765                                             1 	(obj:1)
t_x_776                                             1 	(obj:20)
t_x_782                                             1 	(obj:13)
t_x_791                                             1 	(obj:3)
t_x_793                                             1 	(obj:7)
t_x_794                                             1 	(obj:12)
t_x_799                                             1 	(obj:23)
t_x_803                                             1 	(obj:4)
t_x_816                                             1 	(obj:8)
t_x_817                                             1 	(obj:2)
t_x_819                                             1 	(obj:48)
t_x_821                                             1 	(obj:22)
t_x_825                                             1 	(obj:25)
t_x_827                                             1 	(obj:30)
t_x_828                                             1 	(obj:21)
t_x_833                                             1 	(obj:8)
t_x_834                                             1 	(obj:13)
t_x_840                                             1 	(obj:22)
t_x_842                                             1 	(obj:21)
t_x_844                                             1 	(obj:51)
t_x_845                                             1 	(obj:32)
t_x_847                                             1 	(obj:8)
t_x_848                                             1 	(obj:8)
t_x_854                                             1 	(obj:10)
t_x_855                                             1 	(obj:16)
t_x_858                                             1 	(obj:12)
t_x_863                                             1 	(obj:21)
t_x_864                                             1 	(obj:20)
t_x_872                                             1 	(obj:7)
t_x_874                                             1 	(obj:6)
t_x_875                                             1 	(obj:49)
t_x_882                                             1 	(obj:54)
t_x_883                                             1 	(obj:6)
t_x_886                                             1 	(obj:6)
t_x_887                                             1 	(obj:12)
t_x_890                                             1 	(obj:0)
t_x_896                                             1 	(obj:3)
t_x_897                                             1 	(obj:6)
t_x_901                                             1 	(obj:21)
t_x_904                                             1 	(obj:30)
t_x_906                                             1 	(obj:15)
t_x_928                                             1 	(obj:84)
t_x_930                                             1 	(obj:3)
t_x_932                                             1 	(obj:14)
t_x_938                                             1 	(obj:3)
t_x_939                                             1 	(obj:14)
t_x_943                                             1 	(obj:16)
t_x_945                                             1 	(obj:5)
t_x_946                                             1 	(obj:18)
t_x_948                                             1 	(obj:5)
t_x_949                                             1 	(obj:6)
t_x_950                                             1 	(obj:13)
t_x_957                                             1 	(obj:5)
t_x_958                                             1 	(obj:4)
t_x_964                                             1 	(obj:26)
t_x_972                                             1 	(obj:19)
t_x_974                                             1 	(obj:15)
t_x_975                                             1 	(obj:18)
t_x_980                                             1 	(obj:15)
t_x_981                                             1 	(obj:1)
t_x_982                                             1 	(obj:58)
t_x_991                                             1 	(obj:47)
t_x_996                                             1 	(obj:5)
t_x_997                                             1 	(obj:32)
t_x_1000                                            1 	(obj:0)
t_x_1001                                            1 	(obj:3)
t_x_1004                                            1 	(obj:6)
t_x_1008                                            1 	(obj:6)
t_x_1011                                            1 	(obj:15)
t_x_1013                                            1 	(obj:33)
t_x_1021                                            1 	(obj:23)
t_x_1024                                            1 	(obj:8)
t_x_1027                                            1 	(obj:45)
t_x_1028                                            1 	(obj:17)
t_x_1030                                            1 	(obj:52)
t_x_1042                                            1 	(obj:28)
t_x_1044                                            1 	(obj:10)
t_x_1045                                            1 	(obj:28)
t_x_1046                                            1 	(obj:28)
t_x_1047                                            1 	(obj:0)
t_x_1048                                            1 	(obj:7)
t_x_1052                                            1 	(obj:49)
t_x_1054                                            1 	(obj:22)
t_x_1058                                            1 	(obj:1)
t_x_1059                                            1 	(obj:46)
t_x_1062                                            1 	(obj:4)
t_x_1067                                            1 	(obj:23)
t_x_1070                                            1 	(obj:19)
t_x_1072                                            1 	(obj:11)
t_x_1074                                            1 	(obj:10)
t_x_1075                                            1 	(obj:26)
t_x_1076                                            1 	(obj:12)
t_x_1080                                            1 	(obj:14)
t_x_1082                                            1 	(obj:4)
t_x_1089                                            1 	(obj:0)
t_x_1092                                            1 	(obj:39)
t_x_1093                                            1 	(obj:20)
t_x_1097                                            1 	(obj:63)
t_x_1099                                            1 	(obj:1)
t_x_1105                                            1 	(obj:36)
t_x_1107                                            1 	(obj:11)
t_x_1110                                            1 	(obj:13)
t_x_1114                                            1 	(obj:8)
t_x_1115                                            1 	(obj:24)
t_x_1117                                            1 	(obj:23)
t_x_1118                                            1 	(obj:7)
t_x_1119                                            1 	(obj:10)
t_x_1130                                            1 	(obj:20)
t_x_1134                                            1 	(obj:12)
t_x_1135                                            1 	(obj:42)
t_x_1136                                            1 	(obj:4)
t_x_1138                                            1 	(obj:28)
t_x_1139                                            1 	(obj:9)
t_x_1147                                            1 	(obj:44)
t_x_1151                                            1 	(obj:19)
t_x_1157                                            1 	(obj:18)
t_x_1161                                            1 	(obj:13)
t_x_1165                                            1 	(obj:0)
t_x_1166                                            1 	(obj:3)
t_x_1167                                            1 	(obj:1)
t_x_1171                                            1 	(obj:28)
t_x_1172                                            1 	(obj:43)
t_x_1173                                            1 	(obj:6)
t_x_1175                                            1 	(obj:1)
t_x_1177                                            1 	(obj:5)
t_x_1180                                            1 	(obj:17)
t_x_1181                                            1 	(obj:75)
t_x_1182                                            1 	(obj:10)
t_x_1184                                            1 	(obj:0)
t_x_1185                                            1 	(obj:3)
t_x_1189                                            1 	(obj:7)
t_x_1202                                            1 	(obj:44)
t_x_1208                                            1 	(obj:17)
t_x_1209                                            1 	(obj:3)
t_x_1212                                            1 	(obj:22)
t_x_1215                                            1 	(obj:31)
t_x_1216                                            1 	(obj:35)
t_x_1221                                            1 	(obj:17)
t_x_1228                                            1 	(obj:33)
t_x_1229                                            1 	(obj:18)
t_x_1232                                            1 	(obj:3)
t_x_1233                                            1 	(obj:3)
t_x_1236                                            1 	(obj:47)
t_x_1237                                            1 	(obj:41)
t_x_1239                                            1 	(obj:34)
t_x_1245                                            1 	(obj:33)
t_x_1248                                            1 	(obj:15)
t_x_1250                                            1 	(obj:31)
t_x_1251                                            1 	(obj:28)
t_x_1253                                            1 	(obj:12)
t_x_1254                                            1 	(obj:5)
t_x_1256                                            1 	(obj:3)
t_x_1257                                            1 	(obj:11)
t_x_1258                                            1 	(obj:6)
t_x_1259                                            1 	(obj:10)
t_x_1264                                            1 	(obj:33)
t_x_1265                                            1 	(obj:11)
t_x_1266                                            1 	(obj:17)
t_x_1269                                            1 	(obj:9)
t_x_1270                                            1 	(obj:21)
t_x_1274                                            1 	(obj:29)
t_x_1283                                            1 	(obj:16)
t_x_1285                                            1 	(obj:19)
t_x_1287                                            1 	(obj:13)
t_x_1300                                            1 	(obj:9)
t_x_1301                                            1 	(obj:8)
t_x_1302                                            1 	(obj:20)
t_x_1303                                            1 	(obj:8)
t_x_1304                                            1 	(obj:22)
t_x_1305                                            1 	(obj:17)
t_x_1307                                            1 	(obj:29)
t_x_1314                                            1 	(obj:4)
t_x_1318                                            1 	(obj:14)
t_x_1319                                            1 	(obj:25)
t_x_1324                                            1 	(obj:30)
t_x_1327                                            1 	(obj:27)
t_x_1329                                            1 	(obj:20)
t_x_1332                                            1 	(obj:28)
t_x_1337                                            1 	(obj:15)
t_x_1338                                            1 	(obj:44)
t_x_1342                                            1 	(obj:10)
t_x_1344                                            1 	(obj:16)
t_x_1345                                            1 	(obj:10)
t_x_1356                                            1 	(obj:24)
t_x_1358                                            1 	(obj:46)
t_x_1361                                            1 	(obj:30)
t_x_1364                                            1 	(obj:27)
t_x_1365                                            1 	(obj:26)
t_x_1367                                            1 	(obj:10)
t_x_1369                                            1 	(obj:2)
t_x_1371                                            1 	(obj:31)
t_x_1373                                            1 	(obj:17)
t_x_1378                                            1 	(obj:28)
t_x_1383                                            1 	(obj:12)
t_x_1385                                            1 	(obj:1)
t_x_1392                                            1 	(obj:11)
t_x_1398                                            1 	(obj:23)
t_x_1399                                            1 	(obj:14)
t_x_1401                                            1 	(obj:37)
t_x_1402                                            1 	(obj:22)
t_x_1406                                            1 	(obj:12)
t_x_1409                                            1 	(obj:32)
t_x_1415                                            1 	(obj:24)
t_x_1416                                            1 	(obj:16)
t_x_1417                                            1 	(obj:5)
t_x_1422                                            1 	(obj:2)
t_x_1427                                            1 	(obj:39)
t_x_1435                                            1 	(obj:25)
t_x_1436                                            1 	(obj:0)
t_x_1438                                            1 	(obj:2)
t_x_1439                                            1 	(obj:74)
t_x_1442                                            1 	(obj:34)
t_x_1450                                            1 	(obj:40)
t_x_1453                                            1 	(obj:17)
t_x_1457                                            1 	(obj:4)
t_x_1460                                            1 	(obj:15)
t_x_1461                                            1 	(obj:6)
t_x_1465                                            1 	(obj:31)
t_x_1470                                            1 	(obj:1)
t_x_1473                                            1 	(obj:10)
t_x_1476                                            1 	(obj:9)
t_x_1478                                            1 	(obj:25)
t_x_1480                                            1 	(obj:18)
t_x_1483                                            1 	(obj:8)
t_x_1484                                            1 	(obj:28)
t_x_1494                                            1 	(obj:55)
t_x_1495                                            1 	(obj:4)
t_x_1497                                            1 	(obj:11)
t_x_1499                                            1 	(obj:17)
t_x_1501                                            1 	(obj:34)
t_x_1507                                            1 	(obj:36)
t_x_1509                                            1 	(obj:11)
t_x_1513                                            1 	(obj:13)
t_x_1515                                            1 	(obj:1)
t_x_1516                                            1 	(obj:3)
t_x_1517                                            1 	(obj:7)
t_x_1518                                            1 	(obj:27)
t_x_1521                                            1 	(obj:1)
t_x_1523                                            1 	(obj:0)
t_x_1529                                            1 	(obj:27)
t_x_1532                                            1 	(obj:4)
t_x_1537                                            1 	(obj:5)
t_x_1540                                            1 	(obj:10)
t_x_1544                                            1 	(obj:58)
t_x_1545                                            1 	(obj:12)
t_x_1546                                            1 	(obj:9)
t_x_1547                                            1 	(obj:16)
t_x_1549                                            1 	(obj:8)
t_x_1550                                            1 	(obj:33)
t_x_1552                                            1 	(obj:18)
t_x_1555                                            1 	(obj:17)
t_x_1558                                            1 	(obj:14)
t_x_1561                                            1 	(obj:6)
t_x_1562                                            1 	(obj:28)
t_x_1567                                            1 	(obj:21)
t_x_1569                                            1 	(obj:31)
t_x_1570                                            1 	(obj:12)
t_x_1574                                            1 	(obj:12)
t_x_1577                                            1 	(obj:12)
t_x_1578                                            1 	(obj:3)
t_x_1583                                            1 	(obj:49)
t_x_1589                                            1 	(obj:1)
t_x_1591                                            1 	(obj:25)
t_x_1594                                            1 	(obj:11)
t_x_1597                                            1 	(obj:13)
t_x_1601                                            1 	(obj:25)
t_x_1602                                            1 	(obj:0)
t_x_1611                                            1 	(obj:16)
t_x_1615                                            1 	(obj:13)
t_x_1620                                            1 	(obj:7)
t_x_1624                                            1 	(obj:11)
t_x_1625                                            1 	(obj:6)
t_x_1630                                            1 	(obj:0)
t_x_1634                                            1 	(obj:8)
t_x_1638                                            1 	(obj:22)
t_x_1640                                            1 	(obj:8)
t_x_1644                                            1 	(obj:0)
t_x_1645                                            1 	(obj:30)
t_x_1646                                            1 	(obj:9)
t_x_1648                                            1 	(obj:55)
t_x_1653                                            1 	(obj:29)
t_x_1654                                            1 	(obj:4)
t_x_1656                                            1 	(obj:11)
t_x_1658                                            1 	(obj:16)
t_x_1664                                            1 	(obj:6)
t_x_1665                                            1 	(obj:15)
t_x_1674                                            1 	(obj:11)
t_x_1675                                            1 	(obj:29)
t_x_1682                                            1 	(obj:7)
t_x_1689                                            1 	(obj:11)
t_x_1693                                            1 	(obj:0)
t_x_1694                                            1 	(obj:9)
t_x_1695                                            1 	(obj:6)
t_x_1700                                            1 	(obj:35)
t_x_1706                                            1 	(obj:40)
t_x_1707                                            1 	(obj:12)
t_x_1709                                            1 	(obj:55)
t_x_1715                                            1 	(obj:24)
t_x_1719                                            1 	(obj:8)
t_x_1720                                            1 	(obj:24)
t_x_1726                                            1 	(obj:15)
t_x_1729                                            1 	(obj:4)
t_x_1733                                            1 	(obj:14)
t_x_1737                                            1 	(obj:13)
t_x_1739                                            1 	(obj:19)
t_x_1740                                            1 	(obj:8)
t_x_1741                                            1 	(obj:21)
t_x_1746                                            1 	(obj:31)
t_x_1749                                            1 	(obj:30)
t_x_1756                                            1 	(obj:25)
t_x_1757                                            1 	(obj:13)
t_x_1759                                            1 	(obj:7)
t_x_1767                                            1 	(obj:3)
t_x_1775                                            1 	(obj:35)
t_x_1780                                            1 	(obj:22)
t_x_1791                                            1 	(obj:29)
t_x_1793                                            1 	(obj:15)
t_x_1798                                            1 	(obj:42)
t_x_1801                                            1 	(obj:38)
t_x_1802                                            1 	(obj:13)
t_x_1806                                            1 	(obj:11)
t_x_1807                                            1 	(obj:15)
t_x_1811                                            1 	(obj:4)
t_x_1816                                            1 	(obj:5)
t_x_1817                                            1 	(obj:10)
t_x_1831                                            1 	(obj:1)
t_x_1835                                            1 	(obj:17)
t_x_1838                                            1 	(obj:18)
t_x_1847                                            1 	(obj:14)
t_x_1848                                            1 	(obj:36)
t_x_1849                                            1 	(obj:37)
t_x_1856                                            1 	(obj:85)
t_x_1857                                            1 	(obj:30)
t_x_1861                                            1 	(obj:5)
t_x_1864                                            1 	(obj:58)
t_x_1867                                            1 	(obj:21)
t_x_1868                                            1 	(obj:7)
t_x_1877                                            1 	(obj:41)
t_x_1878                                            1 	(obj:2)
t_x_1879                                            1 	(obj:20)
t_x_1884                                            1 	(obj:33)
t_x_1886                                            1 	(obj:8)
t_x_1888                                            1 	(obj:4)
t_x_1890                                            1 	(obj:20)
t_x_1892                                            1 	(obj:21)
t_x_1902                                            1 	(obj:24)
t_x_1904                                            1 	(obj:2)
t_x_1906                                            1 	(obj:2)
t_x_1907                                            1 	(obj:1)
t_x_1912                                            1 	(obj:6)
t_x_1916                                            1 	(obj:17)
t_x_1917                                            1 	(obj:5)
t_x_1918                                            1 	(obj:17)
t_x_1921                                            1 	(obj:26)
t_x_1925                                            1 	(obj:14)
t_x_1930                                            1 	(obj:2)
t_x_1938                                            1 	(obj:12)
t_x_1940                                            1 	(obj:27)
t_x_1943                                            1 	(obj:6)
t_x_1944                                            1 	(obj:3)
t_x_1946                                            1 	(obj:12)
t_x_1948                                            1 	(obj:19)
t_x_1949                                            1 	(obj:25)
t_x_1950                                            1 	(obj:11)
t_x_1951                                            1 	(obj:22)
t_x_1952                                            1 	(obj:11)
t_x_1953                                            1 	(obj:30)
t_x_1955                                            1 	(obj:3)
t_x_1960                                            1 	(obj:22)
t_x_1961                                            1 	(obj:21)
t_x_1965                                            1 	(obj:38)
t_x_1968                                            1 	(obj:8)
t_x_1969                                            1 	(obj:4)
t_x_1975                                            1 	(obj:12)
t_x_1976                                            1 	(obj:28)
t_x_1978                                            1 	(obj:19)
t_x_1986                                            1 	(obj:18)
t_x_1988                                            1 	(obj:10)
t_x_1998                                            1 	(obj:3)
t_x_1999                                            1 	(obj:5)
